! PBE def2-TZVP def2-TZVP/J RIJCOSX
! TIGHTOPT GRID5 GRIDX8
! VERYTIGHTSCF
! ANFREQ


* xyzfile 0 1 Bz.xyz
